p edge 250 3111
e 0 2
e 0 4
e 0 17
e 0 27
e 0 29
e 0 46
e 0 54
e 0 71
e 0 77
e 0 84
e 0 89
e 0 109
e 0 110
e 0 116
e 0 123
e 0 124
e 0 125
e 0 131
e 0 132
e 0 152
e 0 157
e 0 159
e 0 172
e 0 188
e 0 207
e 0 208
e 0 214
e 0 215
e 0 239
e 0 242
e 0 249
e 1 6
e 1 7
e 1 11
e 1 12
e 1 23
e 1 31
e 1 55
e 1 63
e 1 85
e 1 91
e 1 97
e 1 111
e 1 127
e 1 128
e 1 138
e 1 166
e 1 170
e 1 180
e 1 207
e 1 224
e 1 228
e 1 232
e 1 240
e 2 31
e 2 37
e 2 54
e 2 60
e 2 70
e 2 82
e 2 85
e 2 91
e 2 111
e 2 124
e 2 149
e 2 155
e 2 158
e 2 161
e 2 176
e 2 209
e 2 217
e 2 230
e 3 12
e 3 23
e 3 31
e 3 33
e 3 34
e 3 35
e 3 48
e 3 50
e 3 51
e 3 67
e 3 73
e 3 92
e 3 94
e 3 112
e 3 128
e 3 136
e 3 163
e 3 175
e 3 192
e 3 207
e 3 225
e 3 234
e 3 240
e 3 246
e 4 11
e 4 12
e 4 18
e 4 19
e 4 21
e 4 27
e 4 39
e 4 60
e 4 61
e 4 90
e 4 103
e 4 104
e 4 106
e 4 121
e 4 150
e 4 153
e 4 167
e 4 181
e 4 192
e 4 193
e 4 201
e 4 203
e 4 208
e 4 213
e 4 225
e 4 234
e 4 246
e 5 22
e 5 39
e 5 61
e 5 63
e 5 65
e 5 69
e 5 81
e 5 82
e 5 92
e 5 97
e 5 114
e 5 116
e 5 120
e 5 121
e 5 131
e 5 172
e 5 196
e 5 212
e 5 213
e 5 233
e 5 236
e 5 238
e 6 31
e 6 40
e 6 62
e 6 64
e 6 84
e 6 85
e 6 110
e 6 113
e 6 116
e 6 128
e 6 154
e 6 161
e 6 162
e 6 165
e 6 182
e 6 189
e 6 192
e 6 202
e 6 208
e 6 211
e 6 215
e 6 217
e 6 221
e 6 232
e 6 237
e 6 239
e 7 9
e 7 33
e 7 46
e 7 48
e 7 68
e 7 96
e 7 107
e 7 112
e 7 118
e 7 135
e 7 187
e 7 200
e 7 204
e 7 208
e 7 219
e 7 236
e 8 29
e 8 31
e 8 32
e 8 36
e 8 39
e 8 41
e 8 45
e 8 52
e 8 68
e 8 73
e 8 138
e 8 147
e 8 150
e 8 151
e 8 152
e 8 154
e 8 188
e 8 195
e 8 205
e 8 206
e 8 217
e 9 10
e 9 15
e 9 30
e 9 41
e 9 56
e 9 65
e 9 66
e 9 76
e 9 98
e 9 116
e 9 119
e 9 122
e 9 127
e 9 172
e 9 177
e 9 179
e 9 180
e 9 206
e 9 238
e 9 246
e 10 39
e 10 40
e 10 43
e 10 46
e 10 57
e 10 66
e 10 70
e 10 72
e 10 77
e 10 94
e 10 101
e 10 107
e 10 114
e 10 116
e 10 117
e 10 122
e 10 134
e 10 135
e 10 137
e 10 139
e 10 148
e 10 150
e 10 157
e 10 168
e 10 213
e 10 217
e 10 220
e 10 239
e 11 15
e 11 25
e 11 34
e 11 39
e 11 62
e 11 64
e 11 67
e 11 71
e 11 77
e 11 90
e 11 106
e 11 107
e 11 109
e 11 119
e 11 151
e 11 162
e 11 165
e 11 184
e 11 186
e 12 35
e 12 39
e 12 43
e 12 49
e 12 52
e 12 54
e 12 55
e 12 64
e 12 80
e 12 85
e 12 103
e 12 110
e 12 119
e 12 122
e 12 124
e 12 130
e 12 137
e 12 138
e 12 168
e 12 177
e 12 197
e 12 198
e 12 199
e 12 201
e 12 219
e 12 228
e 12 235
e 13 16
e 13 17
e 13 25
e 13 27
e 13 32
e 13 34
e 13 56
e 13 70
e 13 73
e 13 77
e 13 85
e 13 86
e 13 101
e 13 109
e 13 123
e 13 127
e 13 136
e 13 193
e 13 200
e 13 212
e 13 223
e 14 27
e 14 32
e 14 57
e 14 81
e 14 86
e 14 95
e 14 131
e 14 134
e 14 138
e 14 144
e 14 152
e 14 155
e 14 171
e 14 182
e 14 197
e 14 200
e 14 201
e 14 202
e 14 204
e 15 25
e 15 26
e 15 29
e 15 36
e 15 44
e 15 57
e 15 58
e 15 69
e 15 74
e 15 89
e 15 91
e 15 100
e 15 132
e 15 152
e 15 173
e 15 186
e 15 203
e 15 207
e 15 215
e 15 216
e 15 217
e 15 218
e 15 229
e 15 240
e 15 247
e 16 19
e 16 21
e 16 25
e 16 27
e 16 33
e 16 51
e 16 58
e 16 73
e 16 78
e 16 99
e 16 109
e 16 112
e 16 119
e 16 123
e 16 125
e 16 138
e 16 144
e 16 154
e 16 159
e 16 171
e 16 174
e 16 176
e 16 193
e 16 194
e 16 219
e 16 229
e 16 233
e 16 239
e 17 18
e 17 24
e 17 25
e 17 27
e 17 28
e 17 40
e 17 46
e 17 51
e 17 53
e 17 54
e 17 62
e 17 72
e 17 82
e 17 90
e 17 103
e 17 105
e 17 119
e 17 128
e 17 130
e 17 145
e 17 155
e 17 163
e 17 169
e 17 174
e 17 196
e 17 215
e 17 219
e 17 241
e 17 243
e 18 22
e 18 23
e 18 34
e 18 46
e 18 68
e 18 79
e 18 95
e 18 98
e 18 107
e 18 139
e 18 141
e 18 170
e 18 197
e 18 205
e 18 208
e 18 210
e 18 213
e 18 226
e 18 232
e 18 233
e 18 241
e 18 248
e 19 20
e 19 29
e 19 45
e 19 49
e 19 56
e 19 62
e 19 73
e 19 79
e 19 85
e 19 91
e 19 97
e 19 117
e 19 120
e 19 140
e 19 147
e 19 152
e 19 168
e 19 170
e 19 184
e 19 233
e 19 243
e 19 247
e 20 45
e 20 46
e 20 49
e 20 52
e 20 60
e 20 69
e 20 83
e 20 86
e 20 95
e 20 123
e 20 134
e 20 140
e 20 151
e 20 161
e 20 194
e 20 239
e 20 241
e 20 243
e 20 248
e 21 26
e 21 49
e 21 75
e 21 76
e 21 92
e 21 101
e 21 104
e 21 109
e 21 117
e 21 134
e 21 140
e 21 143
e 21 145
e 21 154
e 21 164
e 21 171
e 21 175
e 21 177
e 21 186
e 21 204
e 21 207
e 21 209
e 21 210
e 21 213
e 21 222
e 22 25
e 22 27
e 22 39
e 22 48
e 22 54
e 22 84
e 22 92
e 22 98
e 22 124
e 22 137
e 22 138
e 22 139
e 22 153
e 22 168
e 22 178
e 22 180
e 22 183
e 22 197
e 22 204
e 22 230
e 22 238
e 22 243
e 23 47
e 23 51
e 23 58
e 23 64
e 23 80
e 23 86
e 23 88
e 23 94
e 23 112
e 23 123
e 23 125
e 23 126
e 23 146
e 23 148
e 23 160
e 23 170
e 23 180
e 23 226
e 23 241
e 24 79
e 24 97
e 24 101
e 24 104
e 24 108
e 24 115
e 24 121
e 24 126
e 24 145
e 24 148
e 24 156
e 24 185
e 24 189
e 24 198
e 24 200
e 24 221
e 24 233
e 25 51
e 25 58
e 25 63
e 25 73
e 25 74
e 25 75
e 25 77
e 25 90
e 25 120
e 25 122
e 25 163
e 25 178
e 25 179
e 25 181
e 25 182
e 25 188
e 25 197
e 25 200
e 25 202
e 25 208
e 25 234
e 25 244
e 25 247
e 25 248
e 25 249
e 26 29
e 26 41
e 26 51
e 26 57
e 26 59
e 26 67
e 26 72
e 26 76
e 26 84
e 26 100
e 26 115
e 26 118
e 26 137
e 26 160
e 26 163
e 26 173
e 26 178
e 26 187
e 26 191
e 26 194
e 26 213
e 26 228
e 26 238
e 26 241
e 26 247
e 27 45
e 27 53
e 27 59
e 27 63
e 27 72
e 27 87
e 27 96
e 27 101
e 27 104
e 27 107
e 27 109
e 27 115
e 27 127
e 27 151
e 27 159
e 27 185
e 27 192
e 27 208
e 27 226
e 27 230
e 27 232
e 27 237
e 28 34
e 28 35
e 28 58
e 28 63
e 28 86
e 28 108
e 28 115
e 28 123
e 28 146
e 28 157
e 28 166
e 28 181
e 28 201
e 28 209
e 28 214
e 28 216
e 28 218
e 28 227
e 28 237
e 28 243
e 28 245
e 28 249
e 29 31
e 29 35
e 29 55
e 29 60
e 29 65
e 29 76
e 29 82
e 29 85
e 29 87
e 29 88
e 29 98
e 29 114
e 29 119
e 29 132
e 29 136
e 29 163
e 29 173
e 29 193
e 29 206
e 29 213
e 29 219
e 29 238
e 29 239
e 30 44
e 30 69
e 30 77
e 30 83
e 30 93
e 30 102
e 30 110
e 30 148
e 30 186
e 30 195
e 30 204
e 30 212
e 30 248
e 31 44
e 31 58
e 31 85
e 31 87
e 31 89
e 31 99
e 31 105
e 31 106
e 31 122
e 31 125
e 31 130
e 31 134
e 31 148
e 31 156
e 31 157
e 31 167
e 31 176
e 31 181
e 31 183
e 31 197
e 31 199
e 31 209
e 31 214
e 31 216
e 32 53
e 32 71
e 32 88
e 32 101
e 32 106
e 32 118
e 32 128
e 32 131
e 32 134
e 32 139
e 32 143
e 32 150
e 32 157
e 32 180
e 32 210
e 32 220
e 32 235
e 32 238
e 33 60
e 33 69
e 33 82
e 33 86
e 33 97
e 33 101
e 33 103
e 33 114
e 33 118
e 33 136
e 33 141
e 33 170
e 33 180
e 33 182
e 33 185
e 33 187
e 33 196
e 33 200
e 33 203
e 33 210
e 33 213
e 33 233
e 34 47
e 34 85
e 34 86
e 34 93
e 34 105
e 34 111
e 34 119
e 34 131
e 34 134
e 34 162
e 34 165
e 34 179
e 34 194
e 34 207
e 34 235
e 34 246
e 35 39
e 35 42
e 35 46
e 35 49
e 35 66
e 35 74
e 35 79
e 35 84
e 35 97
e 35 101
e 35 102
e 35 104
e 35 120
e 35 129
e 35 135
e 35 143
e 35 162
e 35 164
e 35 167
e 35 173
e 35 187
e 35 199
e 35 213
e 35 214
e 35 242
e 35 248
e 36 40
e 36 45
e 36 49
e 36 74
e 36 75
e 36 82
e 36 130
e 36 131
e 36 135
e 36 157
e 36 165
e 36 172
e 36 194
e 36 202
e 36 205
e 36 211
e 36 218
e 36 224
e 36 226
e 36 241
e 36 242
e 36 245
e 37 46
e 37 58
e 37 62
e 37 68
e 37 73
e 37 82
e 37 94
e 37 107
e 37 116
e 37 132
e 37 133
e 37 134
e 37 139
e 37 147
e 37 154
e 37 158
e 37 166
e 37 173
e 37 193
e 37 194
e 37 198
e 37 216
e 37 217
e 37 219
e 37 222
e 37 240
e 38 49
e 38 51
e 38 60
e 38 67
e 38 75
e 38 79
e 38 81
e 38 120
e 38 121
e 38 135
e 38 139
e 38 169
e 38 179
e 38 202
e 39 41
e 39 60
e 39 71
e 39 77
e 39 87
e 39 109
e 39 132
e 39 137
e 39 156
e 39 162
e 39 165
e 39 178
e 39 194
e 39 205
e 39 230
e 40 51
e 40 64
e 40 70
e 40 75
e 40 82
e 40 96
e 40 118
e 40 122
e 40 126
e 40 141
e 40 151
e 40 157
e 40 175
e 40 189
e 40 192
e 40 201
e 40 210
e 40 219
e 40 229
e 40 233
e 40 237
e 40 239
e 40 246
e 41 47
e 41 66
e 41 67
e 41 74
e 41 96
e 41 105
e 41 107
e 41 136
e 41 138
e 41 158
e 41 161
e 41 165
e 41 188
e 41 195
e 41 202
e 41 213
e 41 225
e 41 229
e 41 230
e 41 231
e 42 49
e 42 50
e 42 74
e 42 91
e 42 115
e 42 122
e 42 128
e 42 133
e 42 149
e 42 157
e 42 171
e 42 172
e 42 191
e 42 208
e 42 222
e 42 233
e 42 243
e 43 47
e 43 63
e 43 64
e 43 81
e 43 100
e 43 115
e 43 126
e 43 129
e 43 160
e 43 172
e 43 192
e 43 198
e 43 203
e 43 207
e 43 211
e 43 226
e 43 244
e 44 70
e 44 75
e 44 81
e 44 105
e 44 126
e 44 137
e 44 159
e 44 161
e 44 170
e 44 182
e 44 185
e 44 188
e 44 194
e 44 199
e 44 223
e 44 230
e 45 54
e 45 73
e 45 87
e 45 99
e 45 100
e 45 115
e 45 126
e 45 141
e 45 152
e 45 163
e 45 173
e 45 176
e 45 179
e 45 185
e 45 187
e 45 190
e 45 194
e 45 225
e 45 228
e 46 62
e 46 74
e 46 86
e 46 97
e 46 100
e 46 103
e 46 104
e 46 108
e 46 114
e 46 123
e 46 126
e 46 133
e 46 151
e 46 152
e 46 162
e 46 167
e 46 170
e 46 172
e 46 173
e 46 196
e 46 199
e 46 205
e 46 214
e 46 220
e 46 231
e 46 241
e 47 60
e 47 62
e 47 79
e 47 80
e 47 91
e 47 95
e 47 96
e 47 102
e 47 127
e 47 132
e 47 134
e 47 165
e 47 187
e 47 188
e 47 193
e 47 194
e 47 198
e 47 203
e 47 208
e 47 218
e 47 235
e 47 247
e 47 248
e 48 55
e 48 68
e 48 77
e 48 82
e 48 85
e 48 97
e 48 118
e 48 123
e 48 130
e 48 152
e 48 156
e 48 193
e 48 201
e 48 236
e 48 243
e 48 248
e 49 71
e 49 97
e 49 100
e 49 102
e 49 118
e 49 119
e 49 133
e 49 152
e 49 182
e 49 200
e 49 214
e 49 215
e 49 231
e 49 232
e 49 239
e 49 249
e 50 53
e 50 56
e 50 62
e 50 64
e 50 67
e 50 74
e 50 76
e 50 109
e 50 110
e 50 126
e 50 131
e 50 145
e 50 180
e 50 188
e 50 189
e 50 190
e 50 195
e 50 201
e 50 204
e 50 209
e 50 212
e 50 230
e 50 234
e 50 240
e 51 55
e 51 59
e 51 65
e 51 67
e 51 86
e 51 92
e 51 109
e 51 112
e 51 126
e 51 129
e 51 151
e 51 195
e 51 196
e 51 223
e 51 237
e 51 245
e 52 60
e 52 63
e 52 72
e 52 73
e 52 84
e 52 85
e 52 91
e 52 103
e 52 109
e 52 115
e 52 149
e 52 156
e 52 162
e 52 222
e 52 225
e 52 226
e 52 236
e 53 75
e 53 89
e 53 99
e 53 103
e 53 131
e 53 142
e 53 145
e 53 148
e 53 151
e 53 162
e 53 163
e 53 165
e 53 167
e 53 170
e 53 175
e 53 185
e 53 192
e 53 200
e 53 208
e 53 223
e 53 237
e 53 242
e 54 77
e 54 98
e 54 113
e 54 142
e 54 160
e 54 171
e 54 172
e 54 186
e 54 191
e 54 192
e 54 194
e 54 196
e 54 202
e 54 212
e 54 219
e 54 237
e 55 61
e 55 65
e 55 71
e 55 83
e 55 90
e 55 97
e 55 104
e 55 108
e 55 112
e 55 129
e 55 148
e 55 157
e 55 170
e 55 172
e 55 184
e 55 218
e 55 244
e 55 245
e 56 61
e 56 63
e 56 81
e 56 89
e 56 111
e 56 125
e 56 129
e 56 146
e 56 167
e 56 173
e 56 199
e 56 208
e 56 209
e 56 216
e 56 223
e 57 60
e 57 68
e 57 70
e 57 71
e 57 93
e 57 110
e 57 117
e 57 119
e 57 120
e 57 129
e 57 150
e 57 159
e 57 161
e 57 168
e 57 175
e 57 179
e 57 195
e 57 217
e 57 224
e 57 226
e 57 228
e 57 238
e 58 63
e 58 64
e 58 77
e 58 95
e 58 107
e 58 116
e 58 147
e 58 163
e 58 165
e 58 167
e 58 176
e 58 192
e 58 196
e 58 204
e 58 212
e 58 217
e 58 219
e 58 230
e 59 61
e 59 70
e 59 78
e 59 81
e 59 85
e 59 87
e 59 90
e 59 97
e 59 135
e 59 172
e 59 176
e 59 183
e 59 186
e 59 187
e 59 195
e 59 204
e 59 206
e 59 210
e 59 213
e 59 223
e 59 224
e 59 236
e 59 246
e 59 248
e 60 71
e 60 82
e 60 100
e 60 116
e 60 120
e 60 129
e 60 156
e 60 165
e 60 166
e 60 168
e 60 176
e 60 192
e 60 193
e 60 208
e 60 234
e 60 235
e 60 244
e 61 67
e 61 81
e 61 97
e 61 107
e 61 111
e 61 123
e 61 124
e 61 127
e 61 137
e 61 142
e 61 145
e 61 150
e 61 151
e 61 168
e 61 174
e 61 177
e 61 201
e 61 208
e 61 209
e 61 222
e 61 230
e 61 232
e 62 64
e 62 73
e 62 77
e 62 102
e 62 103
e 62 126
e 62 133
e 62 166
e 62 177
e 62 188
e 62 197
e 62 201
e 62 202
e 62 207
e 62 211
e 62 227
e 62 235
e 63 73
e 63 75
e 63 77
e 63 86
e 63 93
e 63 99
e 63 100
e 63 102
e 63 103
e 63 114
e 63 116
e 63 131
e 63 132
e 63 133
e 63 138
e 63 144
e 63 165
e 63 180
e 63 181
e 63 184
e 63 196
e 63 200
e 63 220
e 63 224
e 63 242
e 64 65
e 64 76
e 64 105
e 64 114
e 64 121
e 64 145
e 64 151
e 64 156
e 64 159
e 64 166
e 64 170
e 64 182
e 64 194
e 64 196
e 64 203
e 64 208
e 64 214
e 64 240
e 64 242
e 65 68
e 65 77
e 65 80
e 65 99
e 65 108
e 65 111
e 65 123
e 65 129
e 65 134
e 65 137
e 65 139
e 65 142
e 65 143
e 65 149
e 65 172
e 65 175
e 65 194
e 65 221
e 65 235
e 65 244
e 66 76
e 66 90
e 66 97
e 66 111
e 66 114
e 66 139
e 66 144
e 66 145
e 66 147
e 66 198
e 66 199
e 66 200
e 66 209
e 66 212
e 66 223
e 66 233
e 66 239
e 66 248
e 66 249
e 67 71
e 67 75
e 67 82
e 67 88
e 67 93
e 67 95
e 67 97
e 67 102
e 67 110
e 67 115
e 67 123
e 67 128
e 67 138
e 67 145
e 67 157
e 67 160
e 67 161
e 67 163
e 67 174
e 67 193
e 67 194
e 67 196
e 67 209
e 67 223
e 67 228
e 67 239
e 67 240
e 67 244
e 67 247
e 68 86
e 68 95
e 68 99
e 68 130
e 68 131
e 68 169
e 68 176
e 68 187
e 68 189
e 68 193
e 68 194
e 68 195
e 68 202
e 68 218
e 68 243
e 68 245
e 68 248
e 69 71
e 69 72
e 69 93
e 69 110
e 69 122
e 69 131
e 69 140
e 69 156
e 69 166
e 69 171
e 69 177
e 69 180
e 69 182
e 69 186
e 69 190
e 69 199
e 69 207
e 69 210
e 69 211
e 69 213
e 69 222
e 69 224
e 69 225
e 69 227
e 70 75
e 70 76
e 70 85
e 70 94
e 70 131
e 70 137
e 70 160
e 70 165
e 70 172
e 70 174
e 70 194
e 70 209
e 70 221
e 70 233
e 70 242
e 70 243
e 70 247
e 71 102
e 71 109
e 71 110
e 71 157
e 71 166
e 71 189
e 71 194
e 71 196
e 71 197
e 71 207
e 71 208
e 71 213
e 71 215
e 71 222
e 71 228
e 71 235
e 71 248
e 72 89
e 72 113
e 72 117
e 72 131
e 72 141
e 72 150
e 72 151
e 72 168
e 72 174
e 72 181
e 72 184
e 72 195
e 72 208
e 72 237
e 72 248
e 73 81
e 73 87
e 73 102
e 73 120
e 73 126
e 73 129
e 73 143
e 73 177
e 73 178
e 73 186
e 73 188
e 73 194
e 73 211
e 73 218
e 73 220
e 73 227
e 73 231
e 73 233
e 73 248
e 74 82
e 74 84
e 74 91
e 74 116
e 74 122
e 74 123
e 74 128
e 74 133
e 74 134
e 74 148
e 74 149
e 74 154
e 74 214
e 74 215
e 74 217
e 74 225
e 74 234
e 74 239
e 75 77
e 75 94
e 75 145
e 75 156
e 75 158
e 75 174
e 75 188
e 75 196
e 75 213
e 75 220
e 75 222
e 75 239
e 75 242
e 75 244
e 76 108
e 76 110
e 76 138
e 76 142
e 76 170
e 76 209
e 76 235
e 77 83
e 77 85
e 77 87
e 77 95
e 77 109
e 77 113
e 77 118
e 77 135
e 77 152
e 77 164
e 77 167
e 77 207
e 77 221
e 77 231
e 77 233
e 77 236
e 77 247
e 78 100
e 78 115
e 78 116
e 78 123
e 78 146
e 78 154
e 78 160
e 78 188
e 78 206
e 78 209
e 78 211
e 78 214
e 78 221
e 78 230
e 78 234
e 78 236
e 78 248
e 79 82
e 79 104
e 79 106
e 79 109
e 79 120
e 79 129
e 79 135
e 79 147
e 79 162
e 79 168
e 79 171
e 79 194
e 79 200
e 79 210
e 79 211
e 79 213
e 79 226
e 79 249
e 80 85
e 80 94
e 80 108
e 80 109
e 80 111
e 80 124
e 80 125
e 80 130
e 80 132
e 80 180
e 80 198
e 80 199
e 80 202
e 80 214
e 80 221
e 80 226
e 80 238
e 80 247
e 81 89
e 81 95
e 81 112
e 81 118
e 81 132
e 81 133
e 81 169
e 81 170
e 81 185
e 81 207
e 81 209
e 81 214
e 81 216
e 81 224
e 82 83
e 82 89
e 82 94
e 82 100
e 82 112
e 82 135
e 82 143
e 82 154
e 82 169
e 82 177
e 82 178
e 82 179
e 82 195
e 82 212
e 82 239
e 82 246
e 83 90
e 83 95
e 83 96
e 83 105
e 83 106
e 83 107
e 83 109
e 83 114
e 83 119
e 83 126
e 83 175
e 83 193
e 83 205
e 83 215
e 83 216
e 83 218
e 83 228
e 84 89
e 84 90
e 84 94
e 84 100
e 84 124
e 84 127
e 84 130
e 84 134
e 84 135
e 84 144
e 84 145
e 84 149
e 84 168
e 84 174
e 84 187
e 84 188
e 84 215
e 84 220
e 84 229
e 85 88
e 85 113
e 85 132
e 85 139
e 85 147
e 85 148
e 85 152
e 85 164
e 85 185
e 85 204
e 85 213
e 85 228
e 85 231
e 85 232
e 85 240
e 85 244
e 86 87
e 86 96
e 86 98
e 86 105
e 86 125
e 86 152
e 86 158
e 86 171
e 86 196
e 86 197
e 86 207
e 86 212
e 86 218
e 86 220
e 86 229
e 86 230
e 86 239
e 87 89
e 87 94
e 87 123
e 87 139
e 87 148
e 87 168
e 87 172
e 87 196
e 87 216
e 87 217
e 88 99
e 88 101
e 88 107
e 88 127
e 88 141
e 88 156
e 88 159
e 88 165
e 88 171
e 88 174
e 88 183
e 88 199
e 88 231
e 88 233
e 88 238
e 88 241
e 89 90
e 89 98
e 89 125
e 89 137
e 89 138
e 89 146
e 89 172
e 89 180
e 89 182
e 89 193
e 89 201
e 89 203
e 89 205
e 89 206
e 89 217
e 89 219
e 89 220
e 89 226
e 89 233
e 89 234
e 89 244
e 90 115
e 90 145
e 90 160
e 90 177
e 90 179
e 90 188
e 90 190
e 90 205
e 90 208
e 90 210
e 90 223
e 90 246
e 91 96
e 91 100
e 91 102
e 91 128
e 91 157
e 91 159
e 91 171
e 91 188
e 91 201
e 91 203
e 91 205
e 91 208
e 91 216
e 91 228
e 92 116
e 92 128
e 92 146
e 92 155
e 92 170
e 92 191
e 92 216
e 92 218
e 92 220
e 92 249
e 93 101
e 93 111
e 93 116
e 93 130
e 93 136
e 93 137
e 93 138
e 93 142
e 93 162
e 93 170
e 93 176
e 93 182
e 93 195
e 93 196
e 93 208
e 93 217
e 93 222
e 93 231
e 93 236
e 93 245
e 94 106
e 94 117
e 94 127
e 94 130
e 94 132
e 94 140
e 94 143
e 94 152
e 94 153
e 94 160
e 94 175
e 94 183
e 94 192
e 94 201
e 94 218
e 94 243
e 95 105
e 95 117
e 95 133
e 95 135
e 95 136
e 95 143
e 95 146
e 95 153
e 95 164
e 95 173
e 95 183
e 95 185
e 95 200
e 95 211
e 95 226
e 95 232
e 95 245
e 95 248
e 96 124
e 96 134
e 96 145
e 96 148
e 96 150
e 96 157
e 96 159
e 96 166
e 96 173
e 96 189
e 96 192
e 96 193
e 96 198
e 96 207
e 96 218
e 97 98
e 97 121
e 97 136
e 97 152
e 97 165
e 97 216
e 97 217
e 97 222
e 97 226
e 97 234
e 97 240
e 97 249
e 98 101
e 98 106
e 98 108
e 98 122
e 98 123
e 98 127
e 98 135
e 98 157
e 98 161
e 98 164
e 98 201
e 98 202
e 98 203
e 98 219
e 98 220
e 98 235
e 98 245
e 98 247
e 99 105
e 99 113
e 99 120
e 99 126
e 99 129
e 99 141
e 99 151
e 99 169
e 99 170
e 99 180
e 99 200
e 99 205
e 99 211
e 99 219
e 99 223
e 99 234
e 100 104
e 100 110
e 100 116
e 100 142
e 100 155
e 100 162
e 100 168
e 100 171
e 100 175
e 100 180
e 100 210
e 100 218
e 100 223
e 100 239
e 100 242
e 100 247
e 101 113
e 101 116
e 101 136
e 101 143
e 101 186
e 101 208
e 101 219
e 101 221
e 101 234
e 101 243
e 101 244
e 102 103
e 102 110
e 102 121
e 102 122
e 102 124
e 102 126
e 102 131
e 102 143
e 102 144
e 102 151
e 102 163
e 102 168
e 102 190
e 102 195
e 102 196
e 102 198
e 102 208
e 102 232
e 102 243
e 103 127
e 103 133
e 103 141
e 103 159
e 103 161
e 103 165
e 103 169
e 103 173
e 103 175
e 103 180
e 103 189
e 103 193
e 103 194
e 103 198
e 103 202
e 103 207
e 103 216
e 103 224
e 103 230
e 103 233
e 104 131
e 104 132
e 104 155
e 104 171
e 104 181
e 104 186
e 104 201
e 104 203
e 104 213
e 104 215
e 104 219
e 104 229
e 104 241
e 104 247
e 105 120
e 105 124
e 105 127
e 105 129
e 105 150
e 105 160
e 105 176
e 105 177
e 105 181
e 105 197
e 105 200
e 105 209
e 105 217
e 105 223
e 105 230
e 105 237
e 105 244
e 106 123
e 106 147
e 106 148
e 106 151
e 106 156
e 106 165
e 106 188
e 106 198
e 106 203
e 106 207
e 106 211
e 106 217
e 106 231
e 106 238
e 106 240
e 106 244
e 106 246
e 106 247
e 107 122
e 107 125
e 107 131
e 107 136
e 107 143
e 107 149
e 107 156
e 107 199
e 107 225
e 107 228
e 107 233
e 107 242
e 108 111
e 108 125
e 108 135
e 108 137
e 108 146
e 108 147
e 108 148
e 108 149
e 108 166
e 108 180
e 108 204
e 108 205
e 108 210
e 108 214
e 108 218
e 108 230
e 108 231
e 108 237
e 108 248
e 109 110
e 109 121
e 109 124
e 109 137
e 109 141
e 109 146
e 109 168
e 109 173
e 109 183
e 109 199
e 109 210
e 109 216
e 109 217
e 109 221
e 109 233
e 109 242
e 109 245
e 109 247
e 110 119
e 110 121
e 110 125
e 110 133
e 110 134
e 110 135
e 110 141
e 110 149
e 110 155
e 110 156
e 110 180
e 110 189
e 110 197
e 110 201
e 110 214
e 110 222
e 110 233
e 110 235
e 111 119
e 111 125
e 111 127
e 111 133
e 111 140
e 111 147
e 111 159
e 111 170
e 111 173
e 111 183
e 111 189
e 111 191
e 111 193
e 111 196
e 112 116
e 112 118
e 112 119
e 112 142
e 112 148
e 112 160
e 112 166
e 112 169
e 112 172
e 112 174
e 112 193
e 112 216
e 112 223
e 112 230
e 112 236
e 113 115
e 113 116
e 113 120
e 113 135
e 113 163
e 113 177
e 113 181
e 113 183
e 113 188
e 113 201
e 113 205
e 113 212
e 113 216
e 113 223
e 113 228
e 113 246
e 113 247
e 114 119
e 114 131
e 114 139
e 114 140
e 114 154
e 114 164
e 114 168
e 114 172
e 114 173
e 114 174
e 114 183
e 114 213
e 114 218
e 114 222
e 114 225
e 114 228
e 114 236
e 115 117
e 115 118
e 115 122
e 115 129
e 115 150
e 115 158
e 115 173
e 115 181
e 115 184
e 115 185
e 115 194
e 115 199
e 115 213
e 115 221
e 115 222
e 115 235
e 116 128
e 116 141
e 116 143
e 116 150
e 116 155
e 116 163
e 116 187
e 116 236
e 116 244
e 116 247
e 116 248
e 117 125
e 117 158
e 117 160
e 117 169
e 117 193
e 117 195
e 117 197
e 117 201
e 117 207
e 117 212
e 117 215
e 117 224
e 117 226
e 117 232
e 118 121
e 118 124
e 118 133
e 118 135
e 118 146
e 118 155
e 118 165
e 118 166
e 118 182
e 118 187
e 118 194
e 118 208
e 118 213
e 118 218
e 118 230
e 118 231
e 118 239
e 119 135
e 119 139
e 119 144
e 119 169
e 119 182
e 119 184
e 119 191
e 119 195
e 119 197
e 119 203
e 119 206
e 119 218
e 119 222
e 119 226
e 119 246
e 120 124
e 120 147
e 120 162
e 120 164
e 120 181
e 120 188
e 120 196
e 120 198
e 120 201
e 120 209
e 120 213
e 120 229
e 120 231
e 120 234
e 120 235
e 120 239
e 121 130
e 121 135
e 121 137
e 121 147
e 121 148
e 121 162
e 121 172
e 121 210
e 121 220
e 121 223
e 121 225
e 121 238
e 121 243
e 122 134
e 122 135
e 122 136
e 122 164
e 122 174
e 122 182
e 122 184
e 122 194
e 122 203
e 122 211
e 122 212
e 122 223
e 122 248
e 123 141
e 123 142
e 123 144
e 123 152
e 123 166
e 123 168
e 123 170
e 123 188
e 123 195
e 123 204
e 123 207
e 123 221
e 123 241
e 124 138
e 124 142
e 124 143
e 124 148
e 124 157
e 124 173
e 124 181
e 124 187
e 124 202
e 124 223
e 124 239
e 124 247
e 125 129
e 125 130
e 125 132
e 125 137
e 125 147
e 125 148
e 125 178
e 125 197
e 125 203
e 125 218
e 125 224
e 125 226
e 125 233
e 125 235
e 125 249
e 126 148
e 126 151
e 126 161
e 126 167
e 126 179
e 126 187
e 126 191
e 126 198
e 126 213
e 126 217
e 126 242
e 126 244
e 127 131
e 127 133
e 127 136
e 127 151
e 127 159
e 127 164
e 127 168
e 127 177
e 127 185
e 127 188
e 127 204
e 127 215
e 127 232
e 127 233
e 127 249
e 128 133
e 128 135
e 128 141
e 128 171
e 128 172
e 128 191
e 128 193
e 128 206
e 128 221
e 128 241
e 129 138
e 129 139
e 129 141
e 129 143
e 129 159
e 129 171
e 129 190
e 129 201
e 129 224
e 129 233
e 129 239
e 130 131
e 130 143
e 130 157
e 130 160
e 130 161
e 130 164
e 130 183
e 130 196
e 130 203
e 130 216
e 130 236
e 131 166
e 131 183
e 131 192
e 131 193
e 131 197
e 131 202
e 131 205
e 131 209
e 131 216
e 131 218
e 131 219
e 131 230
e 131 243
e 132 138
e 132 146
e 132 149
e 132 155
e 132 161
e 132 162
e 132 171
e 132 182
e 132 214
e 132 238
e 133 137
e 133 139
e 133 142
e 133 145
e 133 152
e 133 155
e 133 174
e 133 181
e 133 186
e 133 188
e 133 197
e 133 200
e 133 204
e 133 229
e 133 240
e 134 149
e 134 171
e 134 175
e 134 176
e 134 184
e 134 188
e 134 190
e 134 194
e 134 201
e 134 205
e 134 217
e 134 222
e 134 224
e 134 235
e 134 240
e 134 243
e 134 245
e 135 157
e 135 178
e 135 194
e 135 198
e 135 216
e 135 218
e 135 219
e 135 223
e 135 235
e 135 247
e 136 139
e 136 157
e 136 174
e 136 187
e 136 195
e 136 200
e 136 203
e 136 212
e 136 216
e 136 244
e 137 138
e 137 140
e 137 145
e 137 176
e 137 181
e 137 192
e 137 242
e 138 157
e 138 159
e 138 173
e 138 176
e 138 180
e 138 184
e 138 191
e 138 203
e 138 223
e 138 224
e 138 234
e 138 237
e 138 243
e 138 248
e 139 141
e 139 142
e 139 152
e 139 158
e 139 167
e 139 168
e 139 171
e 139 178
e 139 185
e 139 192
e 139 203
e 139 211
e 139 212
e 139 216
e 139 243
e 139 245
e 140 147
e 140 149
e 140 155
e 140 160
e 140 174
e 140 189
e 140 191
e 140 195
e 140 201
e 140 210
e 140 228
e 140 242
e 140 244
e 140 245
e 140 247
e 141 143
e 141 152
e 141 159
e 141 168
e 141 184
e 141 225
e 141 231
e 141 237
e 141 241
e 141 245
e 141 248
e 142 155
e 142 169
e 142 179
e 142 190
e 142 194
e 142 197
e 142 199
e 142 225
e 142 234
e 143 149
e 143 153
e 143 155
e 143 164
e 143 165
e 143 170
e 143 209
e 143 212
e 144 166
e 144 177
e 144 189
e 144 191
e 144 192
e 144 198
e 144 226
e 144 230
e 144 245
e 144 248
e 145 153
e 145 154
e 145 155
e 145 157
e 145 169
e 145 173
e 145 184
e 145 193
e 145 204
e 145 215
e 145 220
e 145 221
e 145 231
e 145 232
e 145 234
e 145 235
e 146 147
e 146 151
e 146 180
e 146 190
e 146 195
e 146 209
e 146 224
e 146 249
e 147 160
e 147 178
e 147 180
e 147 194
e 147 195
e 147 204
e 147 207
e 147 216
e 147 217
e 147 219
e 147 235
e 147 246
e 147 247
e 148 158
e 148 174
e 148 180
e 148 184
e 148 203
e 148 217
e 148 222
e 148 228
e 148 238
e 149 152
e 149 172
e 149 173
e 149 175
e 149 177
e 149 178
e 149 179
e 149 183
e 149 191
e 149 192
e 149 195
e 149 222
e 149 230
e 150 153
e 150 224
e 150 226
e 150 231
e 150 240
e 150 242
e 150 247
e 151 171
e 151 178
e 151 180
e 151 190
e 151 193
e 151 200
e 151 205
e 151 215
e 151 232
e 152 160
e 152 164
e 152 167
e 152 200
e 152 221
e 152 223
e 152 228
e 152 232
e 152 236
e 152 244
e 153 156
e 153 207
e 153 232
e 153 233
e 154 161
e 154 183
e 154 203
e 154 214
e 154 227
e 154 229
e 154 241
e 154 242
e 155 194
e 155 218
e 155 240
e 155 241
e 155 248
e 156 167
e 156 179
e 156 181
e 156 183
e 156 190
e 156 193
e 156 199
e 156 202
e 156 212
e 156 228
e 157 158
e 157 159
e 157 160
e 157 163
e 157 165
e 157 187
e 157 188
e 157 189
e 157 210
e 157 219
e 157 237
e 158 172
e 158 174
e 158 176
e 158 177
e 158 181
e 158 184
e 158 196
e 158 214
e 158 220
e 158 227
e 158 229
e 158 231
e 158 233
e 158 239
e 158 242
e 159 205
e 159 248
e 159 249
e 160 165
e 160 170
e 160 176
e 160 179
e 160 182
e 160 184
e 160 200
e 160 201
e 160 211
e 160 228
e 161 162
e 161 193
e 161 224
e 161 240
e 161 244
e 162 163
e 162 172
e 162 198
e 162 199
e 162 201
e 162 205
e 162 210
e 162 217
e 162 220
e 163 170
e 163 179
e 163 190
e 163 191
e 163 196
e 163 199
e 163 206
e 164 169
e 164 186
e 164 191
e 164 204
e 164 217
e 164 224
e 164 228
e 164 229
e 164 230
e 164 237
e 164 242
e 165 177
e 165 182
e 165 187
e 165 191
e 165 207
e 165 218
e 165 219
e 165 224
e 166 187
e 166 199
e 166 204
e 166 232
e 166 236
e 167 168
e 167 179
e 167 187
e 167 207
e 167 208
e 167 231
e 167 233
e 167 239
e 167 244
e 167 245
e 168 177
e 168 196
e 168 210
e 168 211
e 168 215
e 168 218
e 168 225
e 168 233
e 168 239
e 169 173
e 169 187
e 169 188
e 169 190
e 169 193
e 169 209
e 169 218
e 169 222
e 169 237
e 169 249
e 170 171
e 170 175
e 170 183
e 170 193
e 170 203
e 170 240
e 170 249
e 171 182
e 171 195
e 171 197
e 171 204
e 171 229
e 172 176
e 172 184
e 172 186
e 172 195
e 172 197
e 172 202
e 172 204
e 172 229
e 173 193
e 173 197
e 173 198
e 173 203
e 173 214
e 173 219
e 174 184
e 174 191
e 174 194
e 174 203
e 174 223
e 174 242
e 174 243
e 175 178
e 175 183
e 175 189
e 175 199
e 175 200
e 175 215
e 175 224
e 175 228
e 175 244
e 175 249
e 176 182
e 176 205
e 176 206
e 176 227
e 176 229
e 176 230
e 176 240
e 177 210
e 177 217
e 177 221
e 177 228
e 178 180
e 178 202
e 178 221
e 178 236
e 178 243
e 179 181
e 179 197
e 179 202
e 179 226
e 179 238
e 179 243
e 179 249
e 180 186
e 180 196
e 180 203
e 180 206
e 180 214
e 180 222
e 180 223
e 180 229
e 180 237
e 180 244
e 181 183
e 181 198
e 181 201
e 181 209
e 181 212
e 181 234
e 181 236
e 181 242
e 182 184
e 182 193
e 182 199
e 182 208
e 182 209
e 182 218
e 182 223
e 182 237
e 182 238
e 182 243
e 182 245
e 183 203
e 183 213
e 183 227
e 183 228
e 183 237
e 184 185
e 184 190
e 184 211
e 184 235
e 184 237
e 184 248
e 185 187
e 185 195
e 185 197
e 185 207
e 185 209
e 185 210
e 185 211
e 185 216
e 185 228
e 185 234
e 185 239
e 185 242
e 185 246
e 186 191
e 186 199
e 186 201
e 186 224
e 186 230
e 187 190
e 187 200
e 187 240
e 188 194
e 188 228
e 188 239
e 188 247
e 189 194
e 189 197
e 189 219
e 189 228
e 189 236
e 189 237
e 189 245
e 190 191
e 190 193
e 190 205
e 190 219
e 190 225
e 190 230
e 190 249
e 191 204
e 191 207
e 191 208
e 191 212
e 191 222
e 191 236
e 192 209
e 192 226
e 193 197
e 193 209
e 193 219
e 193 237
e 193 243
e 194 197
e 194 203
e 194 210
e 194 217
e 194 218
e 194 219
e 194 229
e 194 240
e 194 242
e 195 198
e 195 209
e 195 213
e 195 243
e 195 246
e 196 204
e 196 212
e 197 201
e 197 211
e 197 223
e 197 224
e 197 243
e 198 207
e 198 216
e 198 217
e 198 219
e 198 221
e 198 239
e 199 211
e 199 221
e 199 227
e 199 236
e 199 237
e 199 242
e 200 206
e 200 213
e 200 225
e 200 227
e 200 228
e 200 233
e 201 205
e 201 207
e 201 212
e 201 222
e 201 239
e 201 241
e 202 204
e 202 224
e 202 231
e 202 234
e 202 246
e 203 216
e 203 217
e 203 223
e 203 226
e 203 227
e 203 239
e 204 207
e 204 218
e 204 234
e 204 235
e 204 238
e 204 246
e 204 247
e 205 211
e 205 221
e 205 224
e 205 231
e 205 237
e 205 242
e 205 246
e 205 248
e 206 224
e 206 226
e 207 231
e 207 239
e 208 209
e 208 218
e 208 233
e 209 212
e 209 220
e 209 222
e 209 227
e 209 232
e 209 239
e 210 220
e 210 234
e 210 247
e 211 215
e 211 216
e 211 238
e 211 244
e 211 247
e 212 213
e 212 214
e 212 229
e 212 249
e 213 229
e 213 230
e 213 235
e 214 220
e 214 228
e 214 240
e 215 234
e 216 219
e 216 227
e 217 244
e 219 231
e 219 232
e 219 241
e 219 247
e 220 227
e 221 229
e 221 233
e 221 241
e 222 224
e 222 246
e 223 234
e 223 240
e 223 245
e 224 230
e 224 240
e 224 243
e 225 237
e 225 241
e 225 245
e 226 232
e 227 232
e 227 240
e 228 235
e 228 242
e 228 245
e 228 249
e 229 249
e 230 240
e 230 241
e 231 237
e 232 233
e 232 241
e 233 243
e 234 239
e 234 245
e 235 240
e 235 241
e 235 245
e 235 246
e 236 241
e 236 245
e 236 249
e 238 240
e 238 245
e 240 243
e 240 245
e 243 245
